#run this with pw.x

&CONTROL
   calculation = 'scf'
   restart_mode= 'from_scratch'
   title = 'GGA-D3'
   prefix = 'GGA-D3'  ! This is very important for assigning further calculations based on this output
   pseudo_dir = '.'           ! desired directory path
   outdir = '.'               ! desired directory path 
!   force_conv_thr = 1.0D-3   ! this is needed for ionic/volume relaxation
!   nstep = 200               ! max ionic optimization steps
   verbosity = 'high'
/
&SYSTEM
   ibrav=0
   nat  = 240
   ntyp = 4
   occupations = smearing
   smearing = gauss
   degauss  = 0.0036749309 !in Ryd
   ecutwfc = 75    !in Ryd
   ecutrho = 900   !in Ryd
   input_dft='revpbe'        !revpbe
   vdw_corr ='grimme-d3'               ! GRIMME-D3
   dftd3_version = 4                   ! BJ
/
&ELECTRONS
   electron_maxstep=200
   conv_thr =1.0d-8
/
ATOMIC_SPECIES    
O  16.0  o_pbe_v1.2.uspp.F.UPF 
N  14.0  n_pbe_v1.2.uspp.F.UPF  
H   1.0  h_pbe_v1.4.uspp.F.UPF    
C  12.0  c_pbe_v1.2.uspp.F.UPF  
CELL_PARAMETERS angstrom
15.2688151764309747    0.0000000000000000   -0.0928634654745674
 0.0000000000000000   10.9903286876324700    0.0000000000000000
-0.7993771776793261    0.0000000000000000   14.1473934371858103
ATOMIC_POSITIONS crystal
O  0.2551317898831786  0.3766825634549261  0.0930743185401573
O  0.7544768723311740  0.3766825634549261  0.0930743185401573
O  0.2455231276688266  0.6233174365450732  0.9069256514598411
O  0.7455231276688267  0.6233174365450732  0.9069256514598412
O  0.4955231276688262  0.8766825634549268  0.4069256814598430
O  0.9955231276688262  0.8766825634549268  0.4069256814598430
O  0.0044768723311735  0.1233174365450734  0.5930743485401587
O  0.5044768723311737  0.1233174365450734  0.5930743485401588
N  0.1454938996765856  0.2334290161712957  0.0617732425108562
N  0.6454938996765858  0.2334290161712957  0.0617732425108562
N  0.3545061003234146  0.7665710128287031  0.9382267464891407
N  0.8545061003234147  0.7665710128287031  0.9382267464891408
N  0.1045061003234143  0.7334289871712969  0.4382267464891392
N  0.6045061003234143  0.7334289871712969  0.4382267464891393
N  0.3954938996765855  0.2665709838287041  0.5617732535108592
N  0.8954938996765855  0.2665709838287041  0.5617732535108590
N  0.1602717814001250  0.4007359926808233  0.9618701184767029
N  0.6602717814001252  0.4007359926808233  0.9618701184767030
N  0.3397282035998775  0.5992639773191811  0.0381298585232995
N  0.8397282035998775  0.5992639773191811  0.0381298585232995
N  0.0897282185998746  0.9007360226808188  0.5381298815232970
N  0.5897282185998747  0.9007360226808188  0.5381298815232970
N  0.4102717964001226  0.0992640073191766  0.4618701484766979
N  0.9102717964001228  0.0992640073191766  0.4618701484766978
H  0.1071938358258003  0.3707651457215149  0.9222157500265962
H  0.6071938358258004  0.3707651457215149  0.9222157500265962
H  0.3928061791742011  0.6292348542784857  0.0777842719734051
H  0.8928061791742012  0.6292348542784857  0.0777842719734051
H  0.1428061641741996  0.8707651457215142  0.5777842499734038
H  0.6428061641741996  0.8707651457215142  0.5777842499734037
H  0.3571938208257989  0.1292348542784856  0.4222157210265978
H  0.8571938208257992  0.1292348542784856  0.4222157210265979
H  0.1904768298543082  0.4803971037144955  0.9436982356708935
H  0.6904768298543084  0.4803971037144955  0.9436982356708936
H  0.3095231551456897  0.5196028962855039  0.0563017793291105
H  0.8095231551456897  0.5196028962855039  0.0563017793291105
H  0.0595231701456914  0.9803971037144957  0.5563017643291064
H  0.5595231701456914  0.9803971037144957  0.5563017643291063
H  0.4404768448543104  0.0196028962855043  0.4436982356708947
H  0.9404768448543106  0.0196028962855043  0.4436982356708947
H  0.3264468553132884  0.0039495623277499  0.2646273663049568
H  0.8264468553132887  0.0039495623277499  0.2646273663049568
H  0.1735531446867115  0.9960504416722504  0.7353726046950447
H  0.6735531446867116  0.9960504416722504  0.7353726046950447
H  0.4235531446867117  0.5039495583277492  0.2353726336950432
H  0.9235531446867118  0.5039495583277492  0.2353726336950432
H  0.0764468553132887  0.4960504416722504  0.7646273953049552
H  0.5764468553132888  0.4960504416722504  0.7646273953049550
H  0.2921808034583286  0.1118892213347206  0.1125532880357322
H  0.7921808034583289  0.1118892213347206  0.1125532880357322
H  0.2078191965416717  0.8881107936652837  0.8874467189642651
H  0.7078191965416718  0.8881107936652837  0.8874467189642651
H  0.4578191965416714  0.6118892063347163  0.3874467189642646
H  0.9578191965416715  0.6118892063347163  0.3874467189642646
H  0.0421808034583284  0.3881107936652841  0.6125532810357348
H  0.5421808034583285  0.3881107936652841  0.6125532810357348
H  0.3514297513423488  0.1727433860407832  0.9794386962394702
H  0.8514297513423488  0.1727433860407832  0.9794386962394702
H  0.1485702486576521  0.8272565989592112  0.0205612947605262
H  0.6485702486576522  0.8272565989592112  0.0205612947605262
H  0.3985702486576513  0.6727434010407887  0.5205613037605296
H  0.8985702486576513  0.6727434010407887  0.5205613037605296
H  0.1014297513423484  0.3272565989592118  0.4794386962394698
H  0.6014297513423484  0.3272565989592118  0.4794386962394699
H  0.3835654043078797  0.0920014493518508  0.8217825972141046
H  0.8835654043078797  0.0920014493518508  0.8217825972141046
H  0.1164346031921195  0.9079985646481503  0.1782174177859012
H  0.6164346031921195  0.9079985646481503  0.1782174177859012
H  0.3664345956921205  0.5920014353518497  0.6782174027858953
H  0.8664345956921204  0.5920014353518497  0.6782174027858952
H  0.1335654043078794  0.4079985646481500  0.3217825972141049
H  0.6335654043078794  0.4079985646481500  0.3217825972141048
H  0.2156089552574291  0.0006133535353264  0.3876402750581130
H  0.7156089552574291  0.0006133535353264  0.3876402750581129
H  0.2843910597425688  0.9993866444646735  0.6123596959418808
H  0.7843910597425688  0.9993866444646735  0.6123596959418808
H  0.0343910447425710  0.5006133555353255  0.1123597249418870
H  0.5343910447425709  0.5006133555353255  0.1123597249418870
H  0.4656089402574313  0.4993866444646737  0.8876403040581190
H  0.9656089402574313  0.4993866444646737  0.8876403040581189
H  0.0734996433060932  0.1064086917503829  0.3574896538406542
H  0.5734996433060932  0.1064086917503829  0.3574896538406542
H  0.4265003566939067  0.8935912852496178  0.6425103761593484
H  0.9265003566939067  0.8935912852496178  0.6425103761593484
H  0.1765003566939064  0.6064087147503820  0.1425103461593458
H  0.6765003566939063  0.6064087147503820  0.1425103461593458
H  0.3234996433060933  0.3935913152496212  0.8574896238406514
H  0.8234996433060934  0.3935913152496212  0.8574896238406513
H  0.1606132694480406  0.1320798493837001  0.8941110938059711
H  0.6606132694480408  0.1320798493837001  0.8941110938059712
H  0.3393867305519593  0.8679201356162950  0.1058889131940343
H  0.8393867305519594  0.8679201356162950  0.1058889131940343
H  0.0893867305519592  0.6320798643837050  0.6058889061940286
H  0.5893867305519593  0.6320798643837050  0.6058889061940287
H  0.4106132694480408  0.3679201356162938  0.3941110938059703
H  0.9106132694480409  0.3679201356162938  0.3941110938059702
H  0.0372504897450698  0.0714720900445129  0.7776519092925314
H  0.5372504897450698  0.0714720900445129  0.7776519092925314
H  0.4627495067549304  0.9285279029554900  0.2223480607074744
H  0.9627495067549305  0.9285279029554900  0.2223480607074744
H  0.2127495067549320  0.5714720970445099  0.7223480907074684
H  0.7127495067549320  0.5714720970445099  0.7223480907074684
H  0.2872504932450698  0.4285279029554894  0.2776519392925263
H  0.7872504932450699  0.4285279029554894  0.2776519392925263
H  0.3984623251776420  0.2742530089464915  0.1248649080999002
H  0.8984623251776422  0.2742530089464915  0.1248649080999002
H  0.1015376818223555  0.7257469610535148  0.8751350849001017
H  0.6015376818223557  0.7257469610535148  0.8751350849001016
H  0.3515376748223581  0.7742530389464852  0.3751350849001028
H  0.8515376748223583  0.7742530389464852  0.3751350849001028
H  0.1484623251776413  0.2257469910535091  0.6248649150998981
H  0.6484623251776412  0.2257469910535091  0.6248649150998982
H  0.4832252629799976  0.2486540953214834  0.2681620197338282
H  0.9832252629799976  0.2486540953214834  0.2681620197338282
H  0.0167747360200026  0.7513459336785159  0.7318379802661722
H  0.5167747360200028  0.7513459336785159  0.7318379802661721
H  0.2667747370200025  0.7486540663214840  0.2318379802661714
H  0.7667747370200027  0.7486540663214840  0.2318379802661714
H  0.2332252629799974  0.2513459046785165  0.7681620197338276
H  0.7332252629799973  0.2513459046785165  0.7681620197338276
C  0.2636839467672900  0.0501094677084921  0.2520859177276417
C  0.7636839467672900  0.0501094677084921  0.2520859177276417
C  0.2363160532327101  0.9498905212915092  0.7479141122723605
C  0.7363160532327100  0.9498905212915092  0.7479141122723604
C  0.9863160532327100  0.5501094787084907  0.2479140822723578
C  0.4863160532327099  0.5501094787084907  0.2479140822723578
C  0.0136839467672901  0.4498905212915112  0.7520858877276394
C  0.5136839467672902  0.4498905212915112  0.7520858877276393
C  0.2445273808634553  0.1102594686084064  0.1663830999132764
C  0.7445273808634555  0.1102594686084064  0.1663830999132764
C  0.2554726191365480  0.8897405243915957  0.8336168850867196
C  0.7554726191365478  0.8897405243915957  0.8336168850867195
C  0.0054726191365446  0.6102594756084043  0.3336168850867187
C  0.5054726191365446  0.6102594756084043  0.3336168850867187
C  0.4945273808634522  0.3897405243915966  0.6663831149132802
C  0.9945273808634523  0.3897405243915966  0.6663831149132803
C  0.1641746717760482  0.1701239555492536  0.1492462090121247
C  0.6641746717760483  0.1701239555492536  0.1492462090121247
C  0.3358253132239541  0.8298760154507453  0.8507538199878747
C  0.8358253132239541  0.8298760154507453  0.8507538199878747
C  0.0858253282239517  0.6701239845492546  0.3507537909878751
C  0.5858253282239517  0.6701239845492546  0.3507537909878751
C  0.4141746867760460  0.3298760444507468  0.6492461800121251
C  0.9141746867760460  0.3298760444507468  0.6492461800121252
C  0.0744980137807227  0.1877346619509196  0.0004269401688338
C  0.5744980137807228  0.1877346619509196  0.0004269401688338
C  0.4255019862192772  0.8122653380490797  0.9995730548311623
C  0.9255019862192772  0.8122653380490797  0.9995730548311622
C  0.1755019862192770  0.6877346619509201  0.4995730598311666
C  0.6755019862192769  0.6877346619509201  0.4995730598311666
C  0.3244980137807230  0.3122653380490806  0.5004269401688325
C  0.8244980137807232  0.3122653380490806  0.5004269401688325
C  0.4871093111828754  0.1977182862686548  0.0274025166454914
C  0.9871093111828756  0.1977182862686548  0.0274025166454914
C  0.0128906898171253  0.8022817137313457  0.9725974833545071
C  0.5128906898171253  0.8022817137313457  0.9725974833545071
C  0.2628906888171247  0.6977182862686542  0.4725974833545081
C  0.7628906888171247  0.6977182862686542  0.4725974833545081
C  0.2371093111828746  0.3022817137313455  0.5274025166454928
C  0.7371093111828746  0.3022817137313455  0.5274025166454928
C  0.4191881390286744  0.1626579968405282  0.9606499900639922
C  0.9191881390286744  0.1626579968405282  0.9606499900639922
C  0.0808118684713251  0.8373420181594757  0.0393500209360046
C  0.5808118684713250  0.8373420181594757  0.0393500209360046
C  0.3308118609713258  0.6626579818405242  0.5393500099360077
C  0.8308118609713256  0.6626579818405242  0.5393500099360077
C  0.1691881390286740  0.3373420181594758  0.4606499900639923
C  0.6691881390286741  0.3373420181594758  0.4606499900639923
C  0.4370442364212994  0.1171383619739476  0.8722322351066863
C  0.9370442364212996  0.1171383619739476  0.8722322351066865
C  0.0629557525787035  0.8828616680260488  0.1277677648933131
C  0.5629557525787034  0.8828616680260488  0.1277677648933131
C  0.3129557635787007  0.6171383319739511  0.6277677648933134
C  0.8129557635787007  0.6171383319739511  0.6277677648933133
C  0.1870442514212967  0.3828616380260531  0.3722322351066880
C  0.6870442514212967  0.3828616380260531  0.3722322351066880
C  0.2018611424174533  0.0488690522522488  0.3212421717444285
C  0.7018611424174532  0.0488690522522488  0.3212421717444286
C  0.2981388725825472  0.9511309587477499  0.6787578282555716
C  0.7981388725825472  0.9511309587477499  0.6787578282555716
C  0.0481388575825466  0.5488690412522500  0.1787578282555708
C  0.5481388575825467  0.5488690412522500  0.1787578282555708
C  0.4518611274174528  0.4511309587477488  0.8212421717444282
C  0.9518611274174530  0.4511309587477488  0.8212421717444283
C  0.1218309998847387  0.1080157303151876  0.3041674005254033
C  0.6218309998847388  0.1080157303151876  0.3041674005254033
C  0.3781690076152601  0.8919842396848106  0.6958326294745989
C  0.8781690076152602  0.8919842396848106  0.6958326294745990
C  0.1281690076152605  0.6080157603151894  0.1958325994745968
C  0.6281690076152605  0.6080157603151894  0.1958325994745968
C  0.3718309923847399  0.3919842696848120  0.8041673705254009
C  0.8718309923847399  0.3919842696848120  0.8041673705254009
C  0.1005417819360014  0.1685966589040472  0.2177608311379879
C  0.6005417819360015  0.1685966589040472  0.2177608311379879
C  0.3994582110640018  0.8314033560959502  0.7822391838620096
C  0.8994582110640018  0.8314033560959502  0.7822391838620095
C  0.1494582110640016  0.6685966439040498  0.2822391838620105
C  0.6494582110640016  0.6685966439040498  0.2822391838620106
C  0.3505417889359983  0.3314033560959505  0.7177608161379903
C  0.8505417889359984  0.3314033560959505  0.7177608161379904
C  0.1903240463192394  0.3398974512165659  0.0410552430161749
C  0.6903240463192395  0.3398974512165659  0.0410552430161749
C  0.3096759391807569  0.6601025487834337  0.9589447639838196
C  0.8096759391807570  0.6601025487834337  0.9589447639838197
C  0.0596759536807601  0.8398974512165663  0.4589447639838227
C  0.5596759536807601  0.8398974512165663  0.4589447639838227
C  0.4403240608192431  0.1601025487834341  0.5410552360161802
C  0.9403240608192431  0.1601025487834341  0.5410552360161802
C  0.0924605985231958  0.1393819566217902  0.9121017201324279
C  0.5924605985231958  0.1393819566217902  0.9121017201324279
C  0.4075394089768025  0.8606180283782109  0.0878982728675751
C  0.9075394089768026  0.8606180283782109  0.0878982728675751
C  0.1575394089768032  0.6393819716217891  0.5878982798675720
C  0.6575394089768033  0.6393819716217891  0.5878982798675720
C  0.3424605910231975  0.3606180283782127  0.4121017201324280
C  0.8424605910231976  0.3606180283782127  0.4121017201324281
C  0.0240004279936373  0.1049379063651350  0.8475935539863586
C  0.5240004279936373  0.1049379063651350  0.8475935539863585
C  0.4759995590063613  0.8950621086348641  0.1524064600136421
C  0.9759995590063615  0.8950621086348641  0.1524064600136421
C  0.2259995735063611  0.6049378913651359  0.6524064460136413
C  0.7259995735063611  0.6049378913651359  0.6524064460136412
C  0.2740004409936388  0.3950621086348621  0.3475935539863593
C  0.7740004409936388  0.3950621086348621  0.3475935539863593
C  0.4648619146576156  0.2384700764728837  0.1208165231227098
C  0.9648619146576156  0.2384700764728837  0.1208165231227098
C  0.0351380813423836  0.7615298935271211  0.8791834768772893
C  0.5351380813423836  0.7615298935271211  0.8791834768772893
C  0.2851380853423846  0.7384701064728788  0.3791834768772901
C  0.7851380853423846  0.7384701064728788  0.3791834768772901
C  0.2148619146576166  0.2615299235271162  0.6208165231227105
C  0.7148619146576165  0.2615299235271162  0.6208165231227106
C  0.0141043318076756  0.2244155632778862  0.2032744891627903
C  0.5141043318076757  0.2244155632778862  0.2032744891627903
C  0.4858956721923249  0.7755844217221149  0.7967255398372098
C  0.9858956721923250  0.7755844217221149  0.7967255398372097
C  0.2358956721923246  0.7244155782778849  0.2967255108372095
C  0.7358956721923247  0.7244155782778849  0.2967255108372095
C  0.2641043278076752  0.2755844217221158  0.7032744601627903
C  0.7641043278076752  0.2755844217221158  0.7032744601627903
K_POINTS {automatic}
2 2 2 0 0 0
