#run this with pw.x

&CONTROL
   calculation = 'scf'
   restart_mode= 'from_scratch'
   title = 'vdW-DF'
   prefix = 'vdW-DF'  ! This is very important for assigning further calculations based on this output
   pseudo_dir = '.'           ! desired directory path
   outdir = '.'               ! desired directory path 
!   force_conv_thr = 1.0D-3   ! this is needed for ionic/volume relaxation
!   nstep = 200               ! max ionic optimization steps
   verbosity = 'high'
/
&SYSTEM
   ibrav=0
   nat  = 240
   ntyp = 4
   occupations = smearing
   smearing = gauss
   degauss  = 0.0036749309 !in Ryd
   ecutwfc = 75    !in Ryd
   ecutrho = 900   !in Ryd
   input_dft='vdw-obk8'        !vdW-DF
/
&ELECTRONS
   electron_maxstep=200
   conv_thr =1.0d-8
/
ATOMIC_SPECIES    
O  16.0  o_pbe_v1.2.uspp.F.UPF 
N  14.0  n_pbe_v1.2.uspp.F.UPF  
H   1.0  h_pbe_v1.4.uspp.F.UPF    
C  12.0  c_pbe_v1.2.uspp.F.UPF  
CELL_PARAMETERS angstrom
 15.1782150302529271    0.0000000000000000    0.0279203622418698
 0.0000000000000000   11.0901333280939287    0.0000000000000000
-0.6925245932222504    0.0000000000000000   13.9824168867196921
ATOMIC_POSITIONS crystal
O  0.2545234418820255  0.3769147541893605  0.0932426218501119
O  0.7538646039975136  0.3769147541893605  0.0932426218501119
O  0.2461353960024860  0.6230852458106376  0.9067573481498847
O  0.7461353960024860  0.6230852458106376  0.9067573481498847
O  0.4961353960024864  0.8769147541893624  0.4067573781498888
O  0.9961353960024862  0.8769147541893624  0.4067573781498888
O  0.0038646039975140  0.1230852458106389  0.5932426518501152
O  0.5038646039975140  0.1230852458106389  0.5932426518501153
N  0.1460027314204805  0.2337918607791291  0.0611039098530185
N  0.6460027314204806  0.2337918607791291  0.0611039098530185
N  0.3539972685795198  0.7662081682208688  0.9388960791469761
N  0.8539972685795199  0.7662081682208688  0.9388960791469761
N  0.1039972685795196  0.7337918317791314  0.4388960791469776
N  0.6039972685795196  0.7337918317791314  0.4388960791469775
N  0.3960027314204802  0.2662081392208714  0.5611039208530237
N  0.8960027314204800  0.2662081392208714  0.5611039208530239
N  0.1597464296056464  0.4019967616902070  0.9621154533439059
N  0.6597464296056463  0.4019967616902070  0.9621154533439058
N  0.3402535553943563  0.5980032083097973  0.0378845236560956
N  0.8402535553943563  0.5980032083097973  0.0378845236560956
N  0.0902535703943540  0.9019967916902031  0.5378845466560941
N  0.5902535703943540  0.9019967916902031  0.5378845466560941
N  0.4097464446056437  0.0980032383097927  0.4621154833439015
N  0.9097464446056438  0.0980032383097927  0.4621154833439015
H  0.1070717826823031  0.3722701516017163  0.9215242102569635
H  0.6070717826823031  0.3722701516017163  0.9215242102569634
H  0.3929282323176986  0.6277298483982846  0.0784758117430376
H  0.8929282323176986  0.6277298483982846  0.0784758117430376
H  0.1429282173176970  0.8722701516017154  0.5784757897430366
H  0.6429282173176970  0.8722701516017154  0.5784757897430366
H  0.3570717676823015  0.1277298483982832  0.4215241812569647
H  0.8570717676823014  0.1277298483982832  0.4215241812569647
H  0.1902861507870862  0.4812080395888665  0.9438921631057942
H  0.6902861507870863  0.4812080395888665  0.9438921631057943
H  0.3097138342129127  0.5187919604111322  0.0561078518942105
H  0.8097138342129127  0.5187919604111322  0.0561078518942105
H  0.0597138492129136  0.9812080395888672  0.5561078368942057
H  0.5597138492129136  0.9812080395888672  0.5561078368942057
H  0.4402861657870872  0.0187919604111331  0.4438921631057942
H  0.9402861657870875  0.0187919604111331  0.4438921631057942
H  0.3246093001898261  0.0066790331944345  0.2665803698825409
H  0.8246093001898261  0.0066790331944345  0.2665803698825409
H  0.1753906998101742  0.9933209708055660  0.7334196011174602
H  0.6753906998101741  0.9933209708055660  0.7334196011174602
H  0.4253906998101739  0.5066790291944355  0.2334196301174592
H  0.9253906998101739  0.5066790291944355  0.2334196301174592
H  0.0746093001898255  0.4933209708055660  0.7665803988825396
H  0.5746093001898255  0.4933209708055660  0.7665803988825397
H  0.2925162013101025  0.1129112334850917  0.1125755521770690
H  0.7925162013101026  0.1129112334850917  0.1125755521770690
H  0.2074837986898979  0.8870887815149125  0.8874244548229301
H  0.7074837986898979  0.8870887815149125  0.8874244548229301
H  0.4574837986898975  0.6129112184850876  0.3874244548229274
H  0.9574837986898974  0.6129112184850876  0.3874244548229274
H  0.0425162013101022  0.3870887815149129  0.6125755451770698
H  0.5425162013101023  0.3870887815149129  0.6125755451770698
H  0.3517715435318768  0.1730226583214588  0.9775330292984071
H  0.8517715435318770  0.1730226583214588  0.9775330292984070
H  0.1482284564681232  0.8269773266785362  0.0224669617015879
H  0.6482284564681232  0.8269773266785362  0.0224669617015879
H  0.3982284564681232  0.6730226733214639  0.5224669707015928
H  0.8982284564681231  0.6730226733214639  0.5224669707015926
H  0.1017715435318766  0.3269773266785362  0.4775330292984087
H  0.6017715435318766  0.3269773266785362  0.4775330292984087
H  0.3867093800180372  0.0922688036816935  0.8187654035564517
H  0.8867093800180372  0.0922688036816935  0.8187654035564516
H  0.1132906274819619  0.9077312103183092  0.1812346114435543
H  0.6132906274819619  0.9077312103183092  0.1812346114435543
H  0.3632906199819629  0.5922687896816908  0.6812345964435482
H  0.8632906199819628  0.5922687896816908  0.6812345964435482
H  0.1367093800180371  0.4077312103183075  0.3187654035564505
H  0.6367093800180370  0.4077312103183075  0.3187654035564506
H  0.2114381143154915  0.0044712069344808  0.3909339546406040
H  0.7114381143154914  0.0044712069344808  0.3909339546406040
H  0.2885619006845064  0.9955287910655189  0.6090660163593888
H  0.7885619006845063  0.9955287910655189  0.6090660163593887
H  0.0385618856845085  0.5044712089344794  0.1090660453593958
H  0.5385618856845085  0.5044712089344794  0.1090660453593958
H  0.4614380993154935  0.4955287910655184  0.8909339836406112
H  0.9614380993154936  0.4955287910655184  0.8909339836406112
H  0.0689431199509690  0.1087576153404462  0.3597523637813242
H  0.5689431199509689  0.1087576153404462  0.3597523637813242
H  0.4310568800490311  0.8912423616595559  0.6402476662186777
H  0.9310568800490311  0.8912423616595559  0.6402476662186777
H  0.1810568800490306  0.6087576383404442  0.1402476362186761
H  0.6810568800490306  0.6087576383404442  0.1402476362186761
H  0.3189431199509689  0.3912423916595579  0.8597523337813223
H  0.8189431199509689  0.3912423916595579  0.8597523337813222
H  0.1641208499765670  0.1324054181674786  0.8923923393988193
H  0.6641208499765670  0.1324054181674786  0.8923923393988192
H  0.3358791500234333  0.8675945668325155  0.1076076676011836
H  0.8358791500234333  0.8675945668325155  0.1076076676011836
H  0.0858791500234332  0.6324054331674845  0.6076076606011807
H  0.5858791500234333  0.6324054331674845  0.6076076606011805
H  0.4141208499765668  0.3675945668325167  0.3923923393988198
H  0.9141208499765667  0.3675945668325167  0.3923923393988197
H  0.0418284463050176  0.0720232973570119  0.7743700583756773
H  0.5418284463050177  0.0720232973570119  0.7743700583756772
H  0.4581715501949838  0.9279766956429898  0.2256299116243268
H  0.9581715501949838  0.9279766956429898  0.2256299116243268
H  0.2081715501949838  0.5720233043570103  0.7256299416243227
H  0.7081715501949838  0.5720233043570103  0.7256299416243226
H  0.2918284498050162  0.4279766956429907  0.2743700883756732
H  0.7918284498050161  0.4279766956429907  0.2743700883756733
H  0.3970719892815485  0.2757629781600301  0.1241659418873436
H  0.8970719892815484  0.2757629781600301  0.1241659418873436
H  0.1029280177184487  0.7242369918399758  0.8758340511126588
H  0.6029280177184487  0.7242369918399758  0.8758340511126589
H  0.3529280107184515  0.7757630081600242  0.3758340511126601
H  0.8529280107184517  0.7757630081600242  0.3758340511126601
H  0.1470719892815477  0.2242370218399696  0.6241659488873410
H  0.6470719892815477  0.2242370218399696  0.6241659488873410
H  0.4799179160524930  0.2498354849378109  0.2692312528851836
H  0.9799179160524930  0.2498354849378109  0.2692312528851836
H  0.0200820829475066  0.7501645440621874  0.7307687471148177
H  0.5200820829475067  0.7501645440621874  0.7307687471148175
H  0.2700820839475070  0.7498354559378126  0.2307687471148163
H  0.7700820839475071  0.7498354559378126  0.2307687471148163
H  0.2299179160524937  0.2501645150621890  0.7692312528851823
H  0.7299179160524937  0.2501645150621890  0.7692312528851822
C  0.2616407773284938  0.0525559646872353  0.2536953478552023
C  0.7616407773284938  0.0525559646872353  0.2536953478552023
C  0.2383592226715064  0.9474440243127688  0.7463046821448015
C  0.7383592226715063  0.9474440243127688  0.7463046821448014
C  0.9883592226715063  0.5525559756872312  0.2463046521447984
C  0.4883592226715063  0.5525559756872312  0.2463046521447984
C  0.0116407773284937  0.4474440243127678  0.7536953178551986
C  0.5116407773284937  0.4474440243127678  0.7536953178551986
C  0.2437631597756016  0.1117155899090507  0.1670347352104268
C  0.7437631597756016  0.1117155899090507  0.1670347352104268
C  0.2562368402244026  0.8882844030909526  0.8329652497895690
C  0.7562368402244026  0.8882844030909526  0.8329652497895691
C  0.0062368402243983  0.6117155969090475  0.3329652497895681
C  0.5062368402243983  0.6117155969090475  0.3329652497895682
C  0.4937631597755973  0.3882844030909527  0.6670347502104308
C  0.9937631597755974  0.3882844030909527  0.6670347502104309
C  0.1634568482906171  0.1710302633626910  0.1496140447910643
C  0.6634568482906170  0.1710302633626910  0.1496140447910643
C  0.3365431367093851  0.8289697076373091  0.8503859842089361
C  0.8365431367093852  0.8289697076373091  0.8503859842089362
C  0.0865431517093830  0.6710302923626910  0.3503859552089351
C  0.5865431517093831  0.6710302923626910  0.3503859552089351
C  0.4134568632906148  0.3289697366373088  0.6496140157910637
C  0.9134568632906148  0.3289697366373088  0.6496140157910637
C  0.0755657368455401  0.1881563876826047  0.9990905260977383
C  0.5755657368455401  0.1881563876826047  0.9990905260977383
C  0.4244342631544605  0.8118436123173954  0.0009094689022578
C  0.9244342631544606  0.8118436123173954  0.0009094689022578
C  0.1744342631544598  0.6881563876826046  0.5009094739022620
C  0.6744342631544598  0.6881563876826046  0.5009094739022621
C  0.3255657368455395  0.3118436123173955  0.4990905260977377
C  0.8255657368455395  0.3118436123173955  0.4990905260977377
C  0.4874915013877318  0.1982995467490476  0.0261648058621654
C  0.9874915013877319  0.1982995467490476  0.0261648058621654
C  0.0125084996122680  0.8017004532509514  0.9738351941378335
C  0.5125084996122681  0.8017004532509514  0.9738351941378334
C  0.2625084986122682  0.6982995467490487  0.4738351941378349
C  0.7625084986122681  0.6982995467490487  0.4738351941378349
C  0.2374915013877320  0.3017004532509527  0.5261648058621665
C  0.7374915013877320  0.3017004532509527  0.5261648058621664
C  0.4203757813605762  0.1629775528547086  0.9588712952702505
C  0.9203757813605763  0.1629775528547086  0.9588712952702504
C  0.0796242261394229  0.8370224621452963  0.0411287157297459
C  0.5796242261394229  0.8370224621452963  0.0411287157297459
C  0.3296242186394237  0.6629775378547038  0.5411287047297494
C  0.8296242186394236  0.6629775378547038  0.5411287047297494
C  0.1703757813605758  0.3370224621452959  0.4588712952702516
C  0.6703757813605757  0.3370224621452959  0.4588712952702516
C  0.4397813564035222  0.1173867632215617  0.8698946838821792
C  0.9397813564035222  0.1173867632215617  0.8698946838821792
C  0.0602186325964803  0.8826132667784342  0.1301053161178198
C  0.5602186325964802  0.8826132667784342  0.1301053161178198
C  0.3102186435964778  0.6173867332215658  0.6301053161178207
C  0.8102186435964778  0.6173867332215658  0.6301053161178207
C  0.1897813714035201  0.3826132367784389  0.3698946838821807
C  0.6897813714035200  0.3826132367784389  0.3698946838821807
C  0.1985292949851705  0.0516967682158600  0.3233896465985284
C  0.6985292949851704  0.0516967682158600  0.3233896465985284
C  0.3014707200148309  0.9483032427841365  0.6766103534014714
C  0.8014707200148310  0.9483032427841365  0.6766103534014714
C  0.0514707050148293  0.5516967572158636  0.1766103534014712
C  0.5514707050148293  0.5516967572158636  0.1766103534014712
C  0.4485292799851691  0.4483032427841382  0.8233896465985284
C  0.9485292799851690  0.4483032427841382  0.8233896465985285
C  0.1184250787496865  0.1100543328805662  0.3058251686452559
C  0.6184250787496864  0.1100543328805662  0.3058251686452559
C  0.3815749287503123  0.8899456371194306  0.6941748613547475
C  0.8815749287503124  0.8899456371194306  0.6941748613547474
C  0.1315749287503120  0.6100543628805696  0.1941748313547451
C  0.6315749287503120  0.6100543628805696  0.1941748313547451
C  0.3684250712496876  0.3899456671194338  0.8058251386452525
C  0.8684250712496878  0.3899456671194338  0.8058251386452524
C  0.0984460258132772  0.1697455703830700  0.2185023284597701
C  0.5984460258132771  0.1697455703830700  0.2185023284597701
C  0.4015539671867260  0.8302544446169273  0.7814976865402281
C  0.9015539671867261  0.8302544446169273  0.7814976865402283
C  0.1515539671867257  0.6697455553830728  0.2814976865402273
C  0.6515539671867255  0.6697455553830728  0.2814976865402273
C  0.3484460328132740  0.3302544446169273  0.7185023134597719
C  0.8484460328132739  0.3302544446169273  0.7185023134597718
C  0.1899669109686864  0.3403157792674057  0.0409926558339967
C  0.6899669109686863  0.3403157792674057  0.0409926558339967
C  0.3100330745313112  0.6596842207325934  0.9590073511660013
C  0.8100330745313113  0.6596842207325934  0.9590073511660012
C  0.0600330890313134  0.8403157792674067  0.4590073511660003
C  0.5600330890313134  0.8403157792674067  0.4590073511660002
C  0.4399669254686888  0.1596842207325933  0.5409926488339986
C  0.9399669254686888  0.1596842207325933  0.5409926488339987
C  0.0951417987351351  0.1398328000049021  0.9102775480373930
C  0.5951417987351352  0.1398328000049021  0.9102775480373931
C  0.4048582087648639  0.8601671849950999  0.0897224449626094
C  0.9048582087648639  0.8601671849950999  0.0897224449626094
C  0.1548582087648641  0.6398328150049002  0.5897224519626070
C  0.6548582087648641  0.6398328150049002  0.5897224519626069
C  0.3451417912351361  0.3601671849951004  0.4102775480373936
C  0.8451417912351361  0.3601671849951004  0.4102775480373936
C  0.0274745449607081  0.1053187624196780  0.8451438032248998
C  0.5274745449607081  0.1053187624196780  0.8451438032248998
C  0.4725254420392909  0.8946812525803205  0.1548562107751009
C  0.9725254420392908  0.8946812525803205  0.1548562107751009
C  0.2225254565392900  0.6053187474196795  0.6548561967751000
C  0.7225254565392900  0.6053187474196795  0.6548561967751001
C  0.2774745579607092  0.3946812525803195  0.3451438032249012
C  0.7774745579607093  0.3946812525803195  0.3451438032249012
C  0.4638229073068170  0.2396169625458741  0.1203052723428913
C  0.9638229073068170  0.2396169625458741  0.1203052723428913
C  0.0361770886931825  0.7603830074541316  0.8796947276571077
C  0.5361770886931824  0.7603830074541316  0.8796947276571077
C  0.2861770926931831  0.7396169925458685  0.3796947276571084
C  0.7861770926931829  0.7396169925458685  0.3796947276571084
C  0.2138229073068172  0.2603830374541260  0.6203052723428923
C  0.7138229073068172  0.2603830374541260  0.6203052723428922
C  0.0119605340176727  0.2255414598090002  0.2036181592591922
C  0.5119605340176727  0.2255414598090002  0.2036181592591922
C  0.4880394699823268  0.7744585251910006  0.7963818697408052
C  0.9880394699823266  0.7744585251910006  0.7963818697408052
C  0.2380394699823274  0.7255414748089997  0.2963818407408074
C  0.7380394699823274  0.7255414748089997  0.2963818407408075
C  0.2619605300176733  0.2744585251910024  0.7036181302591947
C  0.7619605300176732  0.2744585251910024  0.7036181302591946
K_POINTS {automatic}
2 2 2 0 0 0
