#run this with pw.x. Second step
&CONTROL
   calculation = 'nscf'
   restart_mode= 'from_scratch'
   title = 'PBE0-D3'
   prefix = 'PBE0-D3'  ! This is very important for assigning further calculations based on this output
   pseudo_dir = '.'           ! desired directory path
   outdir = '.'               ! desired directory path 
   verbosity = 'high'
/
&SYSTEM
   ibrav=0
   nat  = 240
   ntyp = 4
   occupations = smearing
   smearing = gauss
   degauss  = 0.0007349862 !in Ryd
   ecutwfc = 75    !in Ryd
   ecutrho = 900   !in Ryd
   input_dft='pbe0'        !pbe0
   vdw_corr ='grimme-d3'               ! GRIMME-D3
   dftd3_version = 4                   ! BJ
   xdm_a1 = 0.4145
   xdm_a2 = 4.8593       ! Most probably changing S8 option is not available
   nr1 = 32
   nr2 = 32
   nr3 = 32              ! Initiates the FFT grid
   nbnd= 450             
/
&ELECTRONS
   electron_maxstep=200
   conv_thr =1.0d-8
/
ATOMIC_SPECIES    
O  16.0  o_pbe_v1.2.uspp.F.UPF 
N  14.0  n_pbe_v1.2.uspp.F.UPF  
H   1.0  h_pbe_v1.4.uspp.F.UPF    
C  12.0  c_pbe_v1.2.uspp.F.UPF  
CELL_PARAMETERS angstrom
    15.1000003813999992    0.0000000000000000    0.0000000000000000
     0.0000000000000000   11.1859998702999999    0.0000000000000000
    -0.7152174065000000    0.0000000000000000   13.9356590538000003
ATOMIC_POSITIONS crystal
O  0.2545498146681970  0.3785140890398667  0.0913435943808167
O  0.7538875630292952  0.3785140890398667  0.0913435943808167
O  0.2461124369707012  0.6214859109601262  0.9086563756191738
O  0.7461124369707013  0.6214859109601262  0.9086563756191738
O  0.4961124369707048  0.8785140890398738  0.4086564056191762
O  0.9961124369707048  0.8785140890398738  0.4086564056191762
O  0.0038875630292988  0.1214859109601333  0.5913436243808263
O  0.5038875630292986  0.1214859109601333  0.5913436243808263
N  0.1471028674094962  0.2373436260163812  0.0590549042858390
N  0.6471028674094963  0.2373436260163812  0.0590549042858390
N  0.3528971325905036  0.7626564029836177  0.9409450847141565
N  0.8528971325905037  0.7626564029836177  0.9409450847141565
N  0.1028971325905037  0.7373435970163823  0.4409450847141565
N  0.6028971325905036  0.7373435970163823  0.4409450847141565
N  0.3971028674094962  0.2626563739836188  0.5590549152858435
N  0.8971028674094964  0.2626563739836188  0.5590549152858435
N  0.1616733925334899  0.4008693291612566  0.9593261012718596
N  0.6616733925334899  0.4008693291612566  0.9593261012718596
N  0.3383265924665159  0.5991306408387480  0.0406738757281421
N  0.8383265924665159  0.5991306408387480  0.0406738757281421
N  0.0883266074665101  0.9008693591612520  0.5406738987281404
N  0.5883266074665100  0.9008693591612520  0.5406738987281404
N  0.4116734075334840  0.0991306708387505  0.4593261312718550
N  0.9116734075334840  0.0991306708387505  0.4593261312718550
H  0.1089670551120362  0.3715222236579948  0.9191852266441694
H  0.6089670551120362  0.3715222236579948  0.9191852266441694
H  0.3910329598879650  0.6284777763420052  0.0808147953558325
H  0.8910329598879649  0.6284777763420052  0.0808147953558325
H  0.1410329448879638  0.8715222236579946  0.5808147733558306
H  0.6410329448879637  0.8715222236579946  0.5808147733558306
H  0.3589670401120349  0.1284777763420123  0.4191851976441705
H  0.8589670401120348  0.1284777763420123  0.4191851976441705
H  0.1911825842506520  0.4797458826466707  0.9423281859961968
H  0.6911825842506519  0.4797458826466707  0.9423281859961968
H  0.3088174007493467  0.5202541173533364  0.0576718290038080
H  0.8088174007493465  0.5202541173533364  0.0576718290038080
H  0.0588174157493480  0.9797458826466636  0.5576718140038032
H  0.5588174157493480  0.9797458826466636  0.5576718140038032
H  0.4411825992506532  0.0202541173533293  0.4423281859961967
H  0.9411825992506532  0.0202541173533293  0.4423281859961967
H  0.3243773780237142  0.0107099897953548  0.2635441553126610
H  0.8243773780237141  0.0107099897953548  0.2635441553126610
H  0.1756226219762857  0.9892900142046455  0.7364558156873330
H  0.6756226219762856  0.9892900142046455  0.7364558156873330
H  0.4256226219762856  0.5107099857953543  0.2364558446873391
H  0.9256226219762856  0.5107099857953543  0.2364558446873391
H  0.0743773780237143  0.4892900142046455  0.7635441843126669
H  0.5743773780237142  0.4892900142046455  0.7635441843126669
H  0.2935311518095101  0.1176795865842419  0.1109793111713401
H  0.7935311518095098  0.1176795865842419  0.1109793111713401
H  0.2064688481904899  0.8823204284157629  0.8890206958286568
H  0.7064688481904898  0.8823204284157629  0.8890206958286568
H  0.4564688481904898  0.6176795715842370  0.3890206958286568
H  0.9564688481904898  0.6176795715842370  0.3890206958286568
H  0.0435311518095102  0.3823204284157629  0.6109793041713432
H  0.5435311518095102  0.3823204284157629  0.6109793041713432
H  0.3538638509688596  0.1698725274698355  0.9771643442750958
H  0.8538638509688596  0.1698725274698355  0.9771643442750958
H  0.1461361490311403  0.8301274575301596  0.0228356467248999
H  0.6461361490311404  0.8301274575301596  0.0228356467248999
H  0.3961361490311403  0.6698725424698404  0.5228356557249042
H  0.8961361490311403  0.6698725424698404  0.5228356557249042
H  0.1038638509688597  0.3301274575301597  0.4771643442750958
H  0.6038638509688596  0.3301274575301597  0.4771643442750958
H  0.3886564438486173  0.0859318077522373  0.8201630784192393
H  0.8886564438486173  0.0859318077522373  0.8201630784192393
H  0.1113435636513815  0.9140682062477639  0.1798369365807725
H  0.6113435636513815  0.9140682062477639  0.1798369365807725
H  0.3613435561513826  0.5859317937522361  0.6798369215807607
H  0.8613435561513827  0.5859317937522361  0.6798369215807607
H  0.1386564438486174  0.4140682062477639  0.3201630784192394
H  0.6386564438486172  0.4140682062477639  0.3201630784192394
H  0.2109554128395563  0.0077850076629966  0.3866502200859752
H  0.7109554128395562  0.0077850076629966  0.3866502200859752
H  0.2890446021604449  0.9922149903370032  0.6133497509140118
H  0.7890446021604448  0.9922149903370032  0.6133497509140118
H  0.0390445871604401  0.5077850096629968  0.1133497799140248
H  0.5390445871604400  0.5077850096629968  0.1133497799140248
H  0.4609553978395551  0.4922149903370032  0.8866502490859882
H  0.9609553978395551  0.4922149903370032  0.8866502490859882
H  0.0693478344701509  0.1130229798493408  0.3556134406852677
H  0.5693478344701508  0.1130229798493408  0.3556134406852677
H  0.4306521655298455  0.8869769971506607  0.6443865893147419
H  0.9306521655298455  0.8869769971506607  0.6443865893147419
H  0.1806521655298455  0.6130230028493392  0.1443865593147323
H  0.6806521655298454  0.6130230028493392  0.1443865593147323
H  0.3193478344701544  0.3869770271506633  0.8556134106852581
H  0.8193478344701542  0.3869770271506633  0.8556134106852581
H  0.1654708328790077  0.1357966952661884  0.8912321738084577
H  0.6654708328790078  0.1357966952661884  0.8912321738084577
H  0.3345291671209851  0.8642032897338068  0.1087678331915393
H  0.8345291671209850  0.8642032897338068  0.1087678331915393
H  0.0845291671209887  0.6357967102661932  0.6087678261915422
H  0.5845291671209887  0.6357967102661932  0.6087678261915422
H  0.4154708328790149  0.3642032897338067  0.3912321738084578
H  0.9154708328790148  0.3642032897338067  0.3912321738084578
H  0.0435221859042593  0.0703420813327164  0.7752514114380640
H  0.5435221859042593  0.0703420813327164  0.7752514114380640
H  0.4564778105957386  0.9296579116672865  0.2247485585619334
H  0.9564778105957386  0.9296579116672865  0.2247485585619334
H  0.2064778105957386  0.5703420883327135  0.7247485885619359
H  0.7064778105957384  0.5703420883327135  0.7247485885619359
H  0.2935221894042613  0.4296579116672865  0.2752514414380666
H  0.7935221894042613  0.4296579116672865  0.2752514414380666
H  0.3987861183347172  0.2794421881245851  0.1204255143134531
H  0.8987861183347170  0.2794421881245851  0.1204255143134531
H  0.1012138886652833  0.7205577818754195  0.8795744786865569
H  0.6012138886652832  0.7205577818754195  0.8795744786865569
H  0.3512138816652827  0.7794422181245804  0.3795744786865499
H  0.8512138816652828  0.7794422181245804  0.3795744786865499
H  0.1487861183347136  0.2205578118754149  0.6204255213134431
H  0.6487861183347136  0.2205578118754149  0.6204255213134431
H  0.4820678917842341  0.2564544220793877  0.2656738710586730
H  0.9820678917842339  0.2564544220793877  0.2656738710586730
H  0.0179321072157658  0.7435456069206112  0.7343261289413269
H  0.5179321072157657  0.7435456069206112  0.7343261289413269
H  0.2679321082157659  0.7564543930793888  0.2343261289413270
H  0.7679321082157657  0.7564543930793888  0.2343261289413270
H  0.2320678917842341  0.2435455779206123  0.7656738710586730
H  0.7320678917842340  0.2435455779206123  0.7656738710586730
C  0.2617410793838510  0.0566603230849590  0.2507224529887138
C  0.7617410793838510  0.0566603230849590  0.2507224529887138
C  0.2382589206161490  0.9433396659150436  0.7492775770112886
C  0.7382589206161490  0.9433396659150436  0.7492775770112886
C  0.4882589206161489  0.5566603340849564  0.2492775470112791
C  0.9882589206161490  0.5566603340849564  0.2492775470112791
C  0.0117410793838475  0.4433396659150435  0.7507224229887113
C  0.5117410793838474  0.4433396659150435  0.7507224229887113
C  0.2445047731842362  0.1162831158579137  0.1647664757366938
C  0.7445047731842361  0.1162831158579137  0.1647664757366938
C  0.2554952268157673  0.8837168771420894  0.8352335092633085
C  0.7554952268157673  0.8837168771420894  0.8352335092633085
C  0.0054952268157638  0.6162831228579105  0.3352335092633085
C  0.5054952268157638  0.6162831228579105  0.3352335092633085
C  0.4945047731842326  0.3837168771420893  0.6647664907366915
C  0.9945047731842326  0.3837168771420893  0.6647664907366915
C  0.1645853272603627  0.1756446805083674  0.1471820138722344
C  0.6645853272603627  0.1756446805083674  0.1471820138722344
C  0.3354146577396396  0.8243552904916338  0.8528180151277645
C  0.8354146577396394  0.8243552904916338  0.8528180151277645
C  0.0854146727396373  0.6756447095083662  0.3528179861277656
C  0.5854146727396372  0.6756447095083662  0.3528179861277656
C  0.4145853422603604  0.3243553194916327  0.6471819848722355
C  0.9145853422603604  0.3243553194916327  0.6471819848722355
C  0.0771443548787298  0.1914485152589274  0.9972377925540675
C  0.5771443548787296  0.1914485152589274  0.9972377925540675
C  0.4228556451212702  0.8085514847410726  0.0027622024459285
C  0.9228556451212701  0.8085514847410726  0.0027622024459285
C  0.1728556451212702  0.6914485152589273  0.5027622074459325
C  0.6728556451212702  0.6914485152589273  0.5027622074459325
C  0.3271443548787297  0.3085514847410726  0.4972377925540675
C  0.8271443548787297  0.3085514847410726  0.4972377925540675
C  0.4892379666336930  0.1999320963993582  0.0240346049936567
C  0.9892379666336930  0.1999320963993582  0.0240346049936567
C  0.0107620343663070  0.8000679036006418  0.9759653950063362
C  0.5107620343663070  0.8000679036006418  0.9759653950063362
C  0.2607620333663069  0.6999320963993582  0.4759653950063503
C  0.7607620333663069  0.6999320963993582  0.4759653950063503
C  0.2392379666336931  0.3000679036006417  0.5240346049936638
C  0.7392379666336931  0.3000679036006417  0.5240346049936638
C  0.4222851529801793  0.1614213751531796  0.9581606196321300
C  0.9222851529801792  0.1614213751531796  0.9581606196321300
C  0.0777148545198195  0.8385786398468251  0.0418393913678674
C  0.5777148545198195  0.8385786398468251  0.0418393913678674
C  0.3277148470198206  0.6614213601531748  0.5418393803678700
C  0.8277148470198207  0.6614213601531748  0.5418393803678700
C  0.1722851529801794  0.3385786398468252  0.4581606196321371
C  0.6722851529801792  0.3385786398468252  0.4581606196321371
C  0.4415862998642081  0.1143784626478664  0.8702030053664752
C  0.9415862998642082  0.1143784626478664  0.8702030053664752
C  0.0584136891357945  0.8856215673521290  0.1297969946335177
C  0.5584136891357945  0.8856215673521290  0.1297969946335177
C  0.3084137001357918  0.6143784326478710  0.6297969946335248
C  0.8084137001357917  0.6143784326478710  0.6297969946335248
C  0.1915863148642058  0.3856215373521407  0.3702030053664823
C  0.6915863148642056  0.3856215373521407  0.3702030053664823
C  0.1985467174515005  0.0555317171450009  0.3197710292737345
C  0.6985467174515005  0.0555317171450009  0.3197710292737345
C  0.3014532975485007  0.9444682938550107  0.6802289707262654
C  0.8014532975485006  0.9444682938550107  0.6802289707262654
C  0.0514532825484995  0.5555317061449893  0.1802289707262655
C  0.5514532825484995  0.5555317061449893  0.1802289707262655
C  0.4485467024514992  0.4444682938550036  0.8197710292737345
C  0.9485467024514992  0.4444682938550036  0.8197710292737345
C  0.1189695138181154  0.1143526147370791  0.3022399698475765
C  0.6189695138181153  0.1143526147370791  0.3022399698475765
C  0.3810304936818834  0.8856473552629183  0.6977600601524189
C  0.8810304936818834  0.8856473552629183  0.6977600601524189
C  0.1310304936818835  0.6143526447370816  0.1977600301524164
C  0.6310304936818835  0.6143526447370816  0.1977600301524164
C  0.3689695063181165  0.3856473852629209  0.8022399398475811
C  0.8689695063181164  0.3856473852629209  0.8022399398475811
C  0.0997794502802843  0.1742902585149645  0.2155954286109922
C  0.5997794502802843  0.1742902585149645  0.2155954286109922
C  0.4002205427197186  0.8257097564850332  0.7844045863890056
C  0.9002205427197187  0.8257097564850332  0.7844045863890056
C  0.1502205427197187  0.6742902435149668  0.2844045863890055
C  0.6502205427197186  0.6742902435149668  0.2844045863890055
C  0.3497794572802813  0.3257097564850331  0.7155954136109944
C  0.8497794572802813  0.3257097564850331  0.7155954136109944
C  0.1908780215995078  0.3417364414671785  0.0388794961475123
C  0.6908780215995076  0.3417364414671785  0.0388794961475123
C  0.3091219639004893  0.6582635585328214  0.9611205108524847
C  0.8091219639004892  0.6582635585328214  0.9611205108524847
C  0.0591219784004923  0.8417364414671785  0.4611205108524848
C  0.5591219784004922  0.8417364414671785  0.4611205108524848
C  0.4408780360995107  0.1582635585328214  0.5388794891475153
C  0.9408780360995107  0.1582635585328214  0.5388794891475153
C  0.0966522973140509  0.1422283721897406  0.9092450229252734
C  0.5966522973140508  0.1422283721897406  0.9092450229252734
C  0.4033477101859480  0.8577716128102618  0.0907549700747436
C  0.9033477101859478  0.8577716128102618  0.0907549700747436
C  0.1533477101859480  0.6422283871897382  0.5907549770747265
C  0.6533477101859478  0.6422283871897382  0.5907549770747265
C  0.3466522898140520  0.3577716128102618  0.4092450229252594
C  0.8466522898140518  0.3577716128102618  0.4092450229252594
C  0.0291638052497537  0.1046652846898817  0.8452859720623791
C  0.5291638052497537  0.1046652846898817  0.8452859720623791
C  0.4708361817502452  0.8953347303101159  0.1547140419376291
C  0.9708361817502450  0.8953347303101159  0.1547140419376291
C  0.2208361962502446  0.6046652696898841  0.6547140279376209
C  0.7208361962502445  0.6046652696898841  0.6547140279376209
C  0.2791638182497548  0.3953347303101160  0.3452859720623721
C  0.7791638182497548  0.3953347303101160  0.3452859720623721
C  0.4652984610729897  0.2429398287271432  0.1174767864787210
C  0.9652984610729898  0.2429398287271432  0.1174767864787210
C  0.0347015349270064  0.7570601412728614  0.8825232135212790
C  0.5347015349270063  0.7570601412728614  0.8825232135212790
C  0.2847015389270103  0.7429398587271385  0.3825232135212789
C  0.7847015389270101  0.7429398587271385  0.3825232135212789
C  0.2152984610729933  0.2570601712728567  0.6174767864787208
C  0.7152984610729933  0.2570601712728567  0.6174767864787208
C  0.0133630447345988  0.2304126784042373  0.2005209555530838
C  0.5133630447345988  0.2304126784042373  0.2005209555530838
C  0.4866369592654015  0.7695873065957650  0.7994790734469150
C  0.9866369592654014  0.7695873065957650  0.7994790734469150
C  0.2366369592654015  0.7304126934042349  0.2994790444469163
C  0.7366369592654015  0.7304126934042349  0.2994790444469163
C  0.2633630407345985  0.2695873065957650  0.7005209265530850
C  0.7633630407345984  0.2695873065957650  0.7005209265530850
K_POINTS {automatic}
2 2 2 0 0 0
